W4Se4S4/POSCAR-unitcell.orig projected o
   1.00000000000000     
     6.4994484881729049    0.0000000000000000    0.0000000000000000
    -3.2599446923093640    5.6345759207768928    0.0000000000000000
     0.0000000000000000    0.0000000000000000   20.9405689200040683
   W    Se   S 
     4     4     4
Direct
  0.1666989924357078  0.3333504364988590  0.4999046240930804
  0.1666989924357078  0.8333504364988590  0.4999046240930804
  0.6666989924357078  0.3333504364988590  0.5000949584816998
  0.6666989924357078  0.8333504364988590  0.5000949584816998
  0.3332796374367636  0.1666407589993869  0.4172951244637025
  0.8332796374367636  0.6666407589993867  0.5827044581110777
  0.3332796374367636  0.6666407589993867  0.4172951244637025
  0.8332796374367636  0.1666407589993869  0.5827044581110777
  0.8333528676275266  0.1666773740947683  0.4273578737082572
  0.3333528676275266  0.6666773740947683  0.5726417088665160
  0.8333528676275266  0.6666773740947683  0.4273578737082572
  0.3333528676275266  0.1666773740947683  0.5726417088665160
 
  0.00000000E+00  0.00000000E+00  0.00000000E+00
  0.00000000E+00  0.00000000E+00  0.00000000E+00
  0.00000000E+00  0.00000000E+00  0.00000000E+00
  0.00000000E+00  0.00000000E+00  0.00000000E+00
  0.00000000E+00  0.00000000E+00  0.00000000E+00
  0.00000000E+00  0.00000000E+00  0.00000000E+00
  0.00000000E+00  0.00000000E+00  0.00000000E+00
  0.00000000E+00  0.00000000E+00  0.00000000E+00
  0.00000000E+00  0.00000000E+00  0.00000000E+00
  0.00000000E+00  0.00000000E+00  0.00000000E+00
  0.00000000E+00  0.00000000E+00  0.00000000E+00
  0.00000000E+00  0.00000000E+00  0.00000000E+00
