W2Mo2Se2S6/POSCAR-unitcell.orig projecte
   1.00000000000000     
     6.4372836201980101    0.0000000000000000    0.0000000000000000
    -3.2148745768131723    5.5726744354915629    0.0000000000000000
     0.0000000000000000    0.0000000000000000   21.3776470200013549
   Mo   W    Se   S 
     2     2     2     6
Direct
  0.6650473997026122  0.3325246598548459  0.4999996967968912
  0.6650473997026122  0.8325246598548459  0.4999996967968912
  0.1683987179092979  0.3342003189581887  0.4999212057572063
  0.1683987179092979  0.8342003189581888  0.5000781878365761
  0.8332959922020343  0.6666489561045570  0.5811235405921713
  0.8332959922020343  0.1666489561045570  0.4188758530016110
  0.3329239606122699  0.1664823100838086  0.4271243756008329
  0.3329239606122699  0.6664435705355337  0.4271243756008329
  0.8340729739615124  0.1670374469842924  0.5713801877611473
  0.3329239606122699  0.6664823100838086  0.5728750179929495
  0.8340729739615124  0.6670374469842996  0.4286192058326349
  0.3329239606122699  0.1664435705355337  0.5728750179929495
 
  0.00000000E+00  0.00000000E+00  0.00000000E+00
  0.00000000E+00  0.00000000E+00  0.00000000E+00
  0.00000000E+00  0.00000000E+00  0.00000000E+00
  0.00000000E+00  0.00000000E+00  0.00000000E+00
  0.00000000E+00  0.00000000E+00  0.00000000E+00
  0.00000000E+00  0.00000000E+00  0.00000000E+00
  0.00000000E+00  0.00000000E+00  0.00000000E+00
  0.00000000E+00  0.00000000E+00  0.00000000E+00
  0.00000000E+00  0.00000000E+00  0.00000000E+00
  0.00000000E+00  0.00000000E+00  0.00000000E+00
  0.00000000E+00  0.00000000E+00  0.00000000E+00
  0.00000000E+00  0.00000000E+00  0.00000000E+00
