Mo4Se4S4/POSCAR-unitcell.orig projected 
   1.00000000000000     
     6.4955041582305988    0.0000000000000000    0.0000000000000000
    -3.2579959720251539    5.6311735023744145    0.0000000000000000
     0.0000000000000000    0.0000000000000000   20.9659450600016832
   Mo   Se   S 
     4     4     4
Direct
  0.1666829871567657  0.3333423219036028  0.4998991339256296
  0.1666829871567657  0.8333423219036028  0.4998991339256296
  0.6666829871567657  0.3333423219036028  0.5001012744752781
  0.6666829871567657  0.8333423219036028  0.5001012744752781
  0.3333529716808336  0.1666773141656403  0.4178392428855766
  0.8333529716808337  0.6666773141656333  0.5821611655153313
  0.3333529716808336  0.6666773141656333  0.4178392428855766
  0.8333529716808337  0.1666773141656403  0.5821611655153313
  0.8332955436623954  0.1666486001564177  0.4278914785324623
  0.3332955436623954  0.6666486001564177  0.5721089298684524
  0.8332955436623954  0.6666486001564177  0.4278914785324623
  0.3332955436623954  0.1666486001564177  0.5721089298684524
 
  0.00000000E+00  0.00000000E+00  0.00000000E+00
  0.00000000E+00  0.00000000E+00  0.00000000E+00
  0.00000000E+00  0.00000000E+00  0.00000000E+00
  0.00000000E+00  0.00000000E+00  0.00000000E+00
  0.00000000E+00  0.00000000E+00  0.00000000E+00
  0.00000000E+00  0.00000000E+00  0.00000000E+00
  0.00000000E+00  0.00000000E+00  0.00000000E+00
  0.00000000E+00  0.00000000E+00  0.00000000E+00
  0.00000000E+00  0.00000000E+00  0.00000000E+00
  0.00000000E+00  0.00000000E+00  0.00000000E+00
  0.00000000E+00  0.00000000E+00  0.00000000E+00
  0.00000000E+00  0.00000000E+00  0.00000000E+00
