W1Mo3Se4S4/POSCAR-unitcell.orig projecte
   1.00000000000000     
     6.5000865537838139    0.0000000000000000    0.0000000000000000
    -3.2500432768919065    5.6320257850013835    0.0000000000000000
    -0.0081486452573790    0.0000000000000000   20.9479941216786543
   Mo   W    Se   S 
     3     1     4     4
Direct
  0.1702352782818356  0.8328921343323752  0.4998725540350227
  0.6656980243609627  0.3313978611482090  0.5000000436371437
  0.6626550436242559  0.8328921343323752  0.5001275332392646
  0.1681733762501343  0.3363485649265524  0.5000000436371437
  0.3329687232488802  0.1665938034749795  0.4176937015500535
  0.8337557484790032  0.6670733396060617  0.5807095045556163
  0.8336232677998155  0.1665938034749795  0.5823063857242409
  0.8333157787007746  0.6670733396060617  0.4192905827186780
  0.3327761675308976  0.6659006933627063  0.4260619435238661
  0.8340993070996605  0.1670038211865011  0.4277654710858762
  0.3331227134055249  0.6659006933627063  0.5739381437504211
  0.3329027016605569  0.1670038211865011  0.5722346161884112
 
  0.00000000E+00  0.00000000E+00  0.00000000E+00
  0.00000000E+00  0.00000000E+00  0.00000000E+00
  0.00000000E+00  0.00000000E+00  0.00000000E+00
  0.00000000E+00  0.00000000E+00  0.00000000E+00
  0.00000000E+00  0.00000000E+00  0.00000000E+00
  0.00000000E+00  0.00000000E+00  0.00000000E+00
  0.00000000E+00  0.00000000E+00  0.00000000E+00
  0.00000000E+00  0.00000000E+00  0.00000000E+00
  0.00000000E+00  0.00000000E+00  0.00000000E+00
  0.00000000E+00  0.00000000E+00  0.00000000E+00
  0.00000000E+00  0.00000000E+00  0.00000000E+00
  0.00000000E+00  0.00000000E+00  0.00000000E+00
