W4Se6S2/POSCAR-unitcell.orig projected o
   1.00000000000000     
     6.5724009824804206    0.0000000000000000    0.0000000000000000
    -3.2862004912402099    5.6918662146858470    0.0000000000000000
     0.0000000000000000    0.0000000000000000   21.3999999999999986
   W    Se   S 
     4     6     2
Direct
  0.1683693536484049  0.3316305991087029  0.4999246482284157
  0.1649729434682657  0.8350270092888491  0.4999998840882824
  0.6649729434682657  0.3350270092888492  0.4999998840882824
  0.6683693536484050  0.8316305991087027  0.5000751199481492
  0.3334936644392710  0.1665062883178438  0.4193791517301086
  0.8334936644392710  0.6665062883178439  0.5806206164464561
  0.3331046429573730  0.6668035263627942  0.4211127634568811
  0.8331046429573729  0.1668035263627943  0.5788870047196839
  0.8331964263943136  0.1668953097997419  0.4211127634568811
  0.3331964263943134  0.6668953097997420  0.5788870047196839
  0.8335261606970346  0.6664737920600732  0.4292928994044227
  0.3335261606970346  0.1664737920600732  0.5707068687721351
 
  0.00000000E+00  0.00000000E+00  0.00000000E+00
  0.00000000E+00  0.00000000E+00  0.00000000E+00
  0.00000000E+00  0.00000000E+00  0.00000000E+00
  0.00000000E+00  0.00000000E+00  0.00000000E+00
  0.00000000E+00  0.00000000E+00  0.00000000E+00
  0.00000000E+00  0.00000000E+00  0.00000000E+00
  0.00000000E+00  0.00000000E+00  0.00000000E+00
  0.00000000E+00  0.00000000E+00  0.00000000E+00
  0.00000000E+00  0.00000000E+00  0.00000000E+00
  0.00000000E+00  0.00000000E+00  0.00000000E+00
  0.00000000E+00  0.00000000E+00  0.00000000E+00
  0.00000000E+00  0.00000000E+00  0.00000000E+00
