Mo4Se6S2/POSCAR-unitcell.orig projected 
   1.00000000000000     
     6.5702006046085470    0.0000000000000000    0.0000000000000000
    -3.2864340650825534    5.6891903747952997    0.0000000000000000
     0.0000000000000000    0.0000000000000000   21.3999999999999986
   Mo   Se   S 
     4     6     2
Direct
  0.1720432085190427  0.3347900108349433  0.4999142106024412
  0.1687044329836691  0.8381287863703168  0.5000000017760442
  0.6687044329836691  0.3381287863703168  0.5000000017760442
  0.6720432085190428  0.8347900108349432  0.5000857929496402
  0.3371781229045037  0.1696550964494823  0.4198231160608356
  0.8371781229045037  0.6696550964494823  0.5801768874912456
  0.3368812721672690  0.6699677825636225  0.4215421800996995
  0.8368812721672690  0.1699677825636225  0.5784578234523817
  0.8368654367903634  0.1699519471867240  0.4215421800996995
  0.3368654367903635  0.6699519471867240  0.5784578234523817
  0.8371695953569422  0.6696636239970437  0.4297640216918359
  0.3371695953569422  0.1696636239970437  0.5702359818602454
 
  0.00000000E+00  0.00000000E+00  0.00000000E+00
  0.00000000E+00  0.00000000E+00  0.00000000E+00
  0.00000000E+00  0.00000000E+00  0.00000000E+00
  0.00000000E+00  0.00000000E+00  0.00000000E+00
  0.00000000E+00  0.00000000E+00  0.00000000E+00
  0.00000000E+00  0.00000000E+00  0.00000000E+00
  0.00000000E+00  0.00000000E+00  0.00000000E+00
  0.00000000E+00  0.00000000E+00  0.00000000E+00
  0.00000000E+00  0.00000000E+00  0.00000000E+00
  0.00000000E+00  0.00000000E+00  0.00000000E+00
  0.00000000E+00  0.00000000E+00  0.00000000E+00
  0.00000000E+00  0.00000000E+00  0.00000000E+00
