W2Mo2Se7S1/POSCAR-unitcell.orig projecte
   1.00000000000000     
     6.6110250221369533    0.0000000000000000    0.0000000000000000
    -3.3037346703424895    5.7242888092974615    0.0000000000000000
    -0.0048465878870249   -0.0027971755040066   20.2644993891461240
   Mo   W    Se   S 
     2     2     7     1
Direct
  0.6640217994189284  0.3320118603972886  0.5006413175973853
  0.6676809643340131  0.8338414428548274  0.5008053003235110
  0.1674967413516427  0.3310264592635830  0.5007704947623763
  0.1674967413516427  0.8364722034637085  0.5007704947623763
  0.3334636434973666  0.1667327824365077  0.4162216531642844
  0.8334852774788976  0.6664462324018707  0.5837770608307241
  0.3331684798171554  0.6665852005964057  0.4181861876919192
  0.8334852774788976  0.1670409664526757  0.5837770608307241
  0.8333816386679638  0.1669428675161437  0.4180865648201191
  0.3333685110728318  0.6666852162242367  0.5837470505803957
  0.8333816386679638  0.6664406925274690  0.4180865648201191
  0.3328952868626890  0.1664486041191689  0.5751302498160584
 
  0.00000000E+00  0.00000000E+00  0.00000000E+00
  0.00000000E+00  0.00000000E+00  0.00000000E+00
  0.00000000E+00  0.00000000E+00  0.00000000E+00
  0.00000000E+00  0.00000000E+00  0.00000000E+00
  0.00000000E+00  0.00000000E+00  0.00000000E+00
  0.00000000E+00  0.00000000E+00  0.00000000E+00
  0.00000000E+00  0.00000000E+00  0.00000000E+00
  0.00000000E+00  0.00000000E+00  0.00000000E+00
  0.00000000E+00  0.00000000E+00  0.00000000E+00
  0.00000000E+00  0.00000000E+00  0.00000000E+00
  0.00000000E+00  0.00000000E+00  0.00000000E+00
  0.00000000E+00  0.00000000E+00  0.00000000E+00
