W1Mo3Se2S6/POSCAR-unitcell.orig projecte
   1.00000000000000     
     6.4353611531562365    0.0000000000000000    0.0000000000000000
    -3.2176805765781169    5.5731862411608200    0.0000000000000000
     0.0000000000000000    0.0000000000000000   21.3820694900002159
   Mo   W    Se   S 
     3     1     2     6
Direct
  0.1710080953036203  0.8355049776167791  0.5000000016593589
  0.6644949613818196  0.3289918436949784  0.5000000016593589
  0.6644949613818196  0.8355049776167791  0.5000000016593589
  0.1666660060224174  0.3333339329761742  0.5000000016593589
  0.8333326726890888  0.6666672663095099  0.5795475504994191
  0.8333326726890888  0.6666672663095099  0.4204524528192986
  0.3328929499391102  0.1671069890594886  0.4272464107300719
  0.3328929499391102  0.6657878208095597  0.4272464107300719
  0.8342121181890391  0.1671069890594886  0.5727535925886388
  0.8342121181890391  0.1671069890594886  0.4272464107300719
  0.3328929499391102  0.6657878208095597  0.5727535925886388
  0.3328929499391102  0.1671069890594886  0.5727535925886388
 
  0.00000000E+00  0.00000000E+00  0.00000000E+00
  0.00000000E+00  0.00000000E+00  0.00000000E+00
  0.00000000E+00  0.00000000E+00  0.00000000E+00
  0.00000000E+00  0.00000000E+00  0.00000000E+00
  0.00000000E+00  0.00000000E+00  0.00000000E+00
  0.00000000E+00  0.00000000E+00  0.00000000E+00
  0.00000000E+00  0.00000000E+00  0.00000000E+00
  0.00000000E+00  0.00000000E+00  0.00000000E+00
  0.00000000E+00  0.00000000E+00  0.00000000E+00
  0.00000000E+00  0.00000000E+00  0.00000000E+00
  0.00000000E+00  0.00000000E+00  0.00000000E+00
  0.00000000E+00  0.00000000E+00  0.00000000E+00
