W2Mo2S8/POSCAR-unitcell.orig projected o
   1.00000000000000     
     6.3754364563272015    0.0000000000000000    0.0000000000000000
    -3.1875639641589997    5.5212008641547579    0.0000000000000000
     0.0000000000000000    0.0000000000000000   21.7862633400000867
   Mo   W    S 
     2     2     8
Direct
  0.6676061132116493  0.3338039364347917  0.4999999897685612
  0.6676061132116493  0.8338039364347917  0.4999999897685612
  0.1656455731213144  0.3328236663896242  0.4999999897685612
  0.1656455731213144  0.8328236663896242  0.4999999897685612
  0.3331365220147677  0.1665691408363544  0.4281365364604732
  0.8335691323187483  0.6667854459883377  0.5718742268702254
  0.3331365220147677  0.6665691408363544  0.4281365364604732
  0.8335691323187483  0.1667854459883447  0.5718742268702254
  0.8335691323187483  0.1667854459883447  0.4281257526668898
  0.3331365220147677  0.6665691408363544  0.5718634430766421
  0.8335691323187483  0.6667854459883377  0.4281257526668898
  0.3331365220147677  0.1665691408363544  0.5718634430766421
 
  0.00000000E+00  0.00000000E+00  0.00000000E+00
  0.00000000E+00  0.00000000E+00  0.00000000E+00
  0.00000000E+00  0.00000000E+00  0.00000000E+00
  0.00000000E+00  0.00000000E+00  0.00000000E+00
  0.00000000E+00  0.00000000E+00  0.00000000E+00
  0.00000000E+00  0.00000000E+00  0.00000000E+00
  0.00000000E+00  0.00000000E+00  0.00000000E+00
  0.00000000E+00  0.00000000E+00  0.00000000E+00
  0.00000000E+00  0.00000000E+00  0.00000000E+00
  0.00000000E+00  0.00000000E+00  0.00000000E+00
  0.00000000E+00  0.00000000E+00  0.00000000E+00
  0.00000000E+00  0.00000000E+00  0.00000000E+00
