W1Mo3S8/POSCAR-unitcell.orig projected o
   1.00000000000000     
     6.3739332397234145    0.0000000000000000    0.0000000000000000
    -3.1869666198617073    5.5199881076265251    0.0000000000000000
     0.0000000000000000    0.0000000000000000   21.7961890200000354
   Mo   W    S 
     3     1     8
Direct
  0.1657541878548487  0.8328778922880267  0.4999999997954561
  0.6671220552222772  0.3342457596554552  0.4999999997954561
  0.6671220552222772  0.8328778922880267  0.4999999997954561
  0.1666660994331295  0.3333338480771673  0.4999999997954561
  0.3332105075626933  0.1667894399476106  0.4282613169039238
  0.8333327660998009  0.6666671814105030  0.5717220354669571
  0.3332105075626933  0.6664226643362806  0.4282613169039238
  0.8335772831740161  0.1667894399476106  0.5717386826869884
  0.8335772831740161  0.1667894399476106  0.4282613169039238
  0.3332105075626933  0.6664226643362806  0.5717386826869884
  0.8333327660998009  0.6666671814105030  0.4282779641239478
  0.3332105075626933  0.1667894399476106  0.5717386826869884
 
  0.00000000E+00  0.00000000E+00  0.00000000E+00
  0.00000000E+00  0.00000000E+00  0.00000000E+00
  0.00000000E+00  0.00000000E+00  0.00000000E+00
  0.00000000E+00  0.00000000E+00  0.00000000E+00
  0.00000000E+00  0.00000000E+00  0.00000000E+00
  0.00000000E+00  0.00000000E+00  0.00000000E+00
  0.00000000E+00  0.00000000E+00  0.00000000E+00
  0.00000000E+00  0.00000000E+00  0.00000000E+00
  0.00000000E+00  0.00000000E+00  0.00000000E+00
  0.00000000E+00  0.00000000E+00  0.00000000E+00
  0.00000000E+00  0.00000000E+00  0.00000000E+00
  0.00000000E+00  0.00000000E+00  0.00000000E+00
