W3Mo1Se8/POSCAR-unitcell.orig projected 
   1.00000000000000     
     6.6463869780943536    0.0000000000000000    0.0000000000000000
    -3.3231934890471768    5.7559399664117965    0.0000000000000000
     0.0000000000000000    0.0000000000000000   20.0458436199999994
   Mo   W    Se
     1     3     8
Direct
  0.6666661315970686  0.8333340327359267  0.5000000002380673
  0.1661329769581432  0.3338671873748520  0.5000000002380673
  0.1661329769581432  0.8322677234580831  0.5000000002380673
  0.6677324408749121  0.3338671873748520  0.5000000002380673
  0.3333327982637329  0.1666673660692624  0.4163991519616164
  0.8332480770329586  0.6667520873000367  0.5836952637388314
  0.3335022407252887  0.6667520873000367  0.4163047367372962
  0.8332480770329586  0.1664979236077066  0.5836952637388314
  0.8332480770329586  0.1664979236077066  0.4163047367372962
  0.3335022407252887  0.6667520873000367  0.5836952637388314
  0.8332480770329586  0.6667520873000367  0.4163047367372962
  0.3333327982637329  0.1666673660692624  0.5836008485145182
 
  0.00000000E+00  0.00000000E+00  0.00000000E+00
  0.00000000E+00  0.00000000E+00  0.00000000E+00
  0.00000000E+00  0.00000000E+00  0.00000000E+00
  0.00000000E+00  0.00000000E+00  0.00000000E+00
  0.00000000E+00  0.00000000E+00  0.00000000E+00
  0.00000000E+00  0.00000000E+00  0.00000000E+00
  0.00000000E+00  0.00000000E+00  0.00000000E+00
  0.00000000E+00  0.00000000E+00  0.00000000E+00
  0.00000000E+00  0.00000000E+00  0.00000000E+00
  0.00000000E+00  0.00000000E+00  0.00000000E+00
  0.00000000E+00  0.00000000E+00  0.00000000E+00
  0.00000000E+00  0.00000000E+00  0.00000000E+00
