W4Se5S3/POSCAR-unitcell.orig projected o
   1.00000000000000     
     6.5369608037159344    0.0000000000000000    0.0000000000000000
    -3.2684804018579663    5.6611741195611405    0.0000000000000000
     0.0000000000000000    0.0000000000000000   21.3999999999999986
   W    Se   S 
     4     5     3
Direct
  0.1697701671202998  0.3348859041783295  0.5006026920163202
  0.1665458581398117  0.8332737496880891  0.5006573670122313
  0.6651206171545988  0.3349718349321270  0.5007750307254075
  0.6651206171545988  0.8301504234588383  0.5007750307254075
  0.3330988959195743  0.1663351495426836  0.4201221129000061
  0.8337332870694768  0.6668674641529215  0.5816574045176492
  0.3330988959195743  0.6667653876132573  0.4201221129000061
  0.8333637964742927  0.1666827188553259  0.5800108875361225
  0.8333702084136225  0.1666859248249945  0.4217816362641837
  0.3332249408111585  0.6668922236694186  0.5717581744573529
  0.8336544416784694  0.6668280414574178  0.4299793764879742
  0.3332249408111585  0.1663343583780990  0.5717581744573529
 
  0.00000000E+00  0.00000000E+00  0.00000000E+00
  0.00000000E+00  0.00000000E+00  0.00000000E+00
  0.00000000E+00  0.00000000E+00  0.00000000E+00
  0.00000000E+00  0.00000000E+00  0.00000000E+00
  0.00000000E+00  0.00000000E+00  0.00000000E+00
  0.00000000E+00  0.00000000E+00  0.00000000E+00
  0.00000000E+00  0.00000000E+00  0.00000000E+00
  0.00000000E+00  0.00000000E+00  0.00000000E+00
  0.00000000E+00  0.00000000E+00  0.00000000E+00
  0.00000000E+00  0.00000000E+00  0.00000000E+00
  0.00000000E+00  0.00000000E+00  0.00000000E+00
  0.00000000E+00  0.00000000E+00  0.00000000E+00
