W2Mo2Se8/POSCAR-unitcell.orig projected 
   1.00000000000000     
     6.6469687842244474    0.0000000000000000    0.0000000000000000
    -3.3226408471642270    5.7559567219824688    0.0000000000000000
     0.0000000000000000    0.0000000000000000   20.0440306500000034
   Mo   W    Se
     2     2     8
Direct
  0.6675614729012067  0.3337819318836892  0.4999999975974987
  0.6675614729012067  0.8337819318836891  0.4999999975974987
  0.1656724656001550  0.3328374282331598  0.4999999975974987
  0.1656724656001550  0.8328374282331600  0.4999999975974987
  0.3334851860222037  0.1667437884441877  0.4164786471777679
  0.8332293447271116  0.6666158677966417  0.5835744346443404
  0.3334851860222037  0.6667437884441878  0.4164786471777679
  0.8332293447271116  0.1666158677966417  0.5835744346443404
  0.8332293447271116  0.1666158677966417  0.4164255605506499
  0.3334851860222037  0.6667437884441878  0.5835213480172294
  0.8332293447271116  0.6666158677966417  0.4164255605506499
  0.3334851860222037  0.1667437884441877  0.5835213480172294
 
  0.00000000E+00  0.00000000E+00  0.00000000E+00
  0.00000000E+00  0.00000000E+00  0.00000000E+00
  0.00000000E+00  0.00000000E+00  0.00000000E+00
  0.00000000E+00  0.00000000E+00  0.00000000E+00
  0.00000000E+00  0.00000000E+00  0.00000000E+00
  0.00000000E+00  0.00000000E+00  0.00000000E+00
  0.00000000E+00  0.00000000E+00  0.00000000E+00
  0.00000000E+00  0.00000000E+00  0.00000000E+00
  0.00000000E+00  0.00000000E+00  0.00000000E+00
  0.00000000E+00  0.00000000E+00  0.00000000E+00
  0.00000000E+00  0.00000000E+00  0.00000000E+00
  0.00000000E+00  0.00000000E+00  0.00000000E+00
