W3Mo1S8/POSCAR-unitcell.orig projected o
   1.00000000000000     
     6.3766827868085345    0.0000000000000000    0.0000000000000000
    -3.1883413934042673    5.5223692852511403    0.0000000000000000
     0.0000000000000000    0.0000000000000000   21.7773965800000937
   Mo   W    S 
     1     3     8
Direct
  0.6666660836928742  0.8333339310204977  0.4999999997172537
  0.1661367531556455  0.3338632615577193  0.4999999997172537
  0.1661367531556455  0.8322752699460474  0.4999999997172537
  0.6677247447673174  0.3338632615577193  0.4999999997172537
  0.3333327503595385  0.1666672643538334  0.4280207495589238
  0.8334248628428853  0.6665751518704865  0.5720177998136912
  0.3331485253928519  0.6665751518704865  0.4279821996208162
  0.8334248628428853  0.1668514893205199  0.5720177998136912
  0.8334248628428853  0.1668514893205199  0.4279821996208162
  0.3331485253928519  0.6665751518704865  0.5720177998136912
  0.8334248628428853  0.6665751518704865  0.4279821996208162
  0.3333327503595385  0.1666672643538334  0.5719792498755837
 
  0.00000000E+00  0.00000000E+00  0.00000000E+00
  0.00000000E+00  0.00000000E+00  0.00000000E+00
  0.00000000E+00  0.00000000E+00  0.00000000E+00
  0.00000000E+00  0.00000000E+00  0.00000000E+00
  0.00000000E+00  0.00000000E+00  0.00000000E+00
  0.00000000E+00  0.00000000E+00  0.00000000E+00
  0.00000000E+00  0.00000000E+00  0.00000000E+00
  0.00000000E+00  0.00000000E+00  0.00000000E+00
  0.00000000E+00  0.00000000E+00  0.00000000E+00
  0.00000000E+00  0.00000000E+00  0.00000000E+00
  0.00000000E+00  0.00000000E+00  0.00000000E+00
  0.00000000E+00  0.00000000E+00  0.00000000E+00
