Mo4Se8/POSCAR-unitcell.orig projected on
   1.00000000000000     
     6.6441352507124565    0.0000000000000000    0.0000000000000000
    -3.3220676253562287    5.7539899132966772    0.0000000000000000
     0.0000000000000000    0.0000000000000000   20.0594141599999958
   Mo   Se
     4     8
Direct
  0.1666666666666643  0.3333333333333357  0.5000000000000000
  0.1666666666666643  0.8333333333333357  0.5000000000000000
  0.6666666666666643  0.3333333333333357  0.5000000000000000
  0.6666666666666643  0.8333333333333357  0.5000000000000000
  0.3333333333333286  0.1666666666666714  0.4167226628546032
  0.8333333333333286  0.6666666666666714  0.5832773371453968
  0.3333333333333286  0.6666666666666714  0.4167226628546032
  0.8333333333333286  0.1666666666666714  0.5832773371453968
  0.8333333333333286  0.1666666666666714  0.4167226628546032
  0.3333333333333286  0.6666666666666714  0.5832773371453968
  0.8333333333333286  0.6666666666666714  0.4167226628546032
  0.3333333333333286  0.1666666666666714  0.5832773371453968
 
  0.00000000E+00  0.00000000E+00  0.00000000E+00
  0.00000000E+00  0.00000000E+00  0.00000000E+00
  0.00000000E+00  0.00000000E+00  0.00000000E+00
  0.00000000E+00  0.00000000E+00  0.00000000E+00
  0.00000000E+00  0.00000000E+00  0.00000000E+00
  0.00000000E+00  0.00000000E+00  0.00000000E+00
  0.00000000E+00  0.00000000E+00  0.00000000E+00
  0.00000000E+00  0.00000000E+00  0.00000000E+00
  0.00000000E+00  0.00000000E+00  0.00000000E+00
  0.00000000E+00  0.00000000E+00  0.00000000E+00
  0.00000000E+00  0.00000000E+00  0.00000000E+00
  0.00000000E+00  0.00000000E+00  0.00000000E+00
