W3Mo1Se7S1/POSCAR-unitcell.orig projecte
   1.00000000000000     
     6.6092876010447963    0.0000000000000000    0.0000000000000000
    -3.3046438005223981    5.7238109634223040    0.0000000000000000
     0.0000000000000000    0.0000000000000000   20.2715186800000282
   Mo   W    Se   S 
     1     3     7     1
Direct
  0.6666661052338796  0.8333339628426160  0.5007932480176553
  0.1679595156292830  0.3320405524472053  0.5007294558986560
  0.1679595156292830  0.8359207836334230  0.5007294558986560
  0.6640792844430725  0.3320405524472053  0.5007294558986560
  0.3333327719005439  0.1666672961759446  0.4161492303908344
  0.8334024329961800  0.6665976350803156  0.5838823188915189
  0.3331787991232168  0.6665903097872811  0.4180020080704987
  0.8334024329961800  0.1668066183672096  0.5838823188915189
  0.8334097582892074  0.1668212689532717  0.4180020080704987
  0.3331934497092859  0.6665976350803156  0.5838823188915189
  0.8334097582892074  0.6665903097872811  0.4180020080704987
  0.3333327719005439  0.1666672961759446  0.5752161730094814
 
  0.00000000E+00  0.00000000E+00  0.00000000E+00
  0.00000000E+00  0.00000000E+00  0.00000000E+00
  0.00000000E+00  0.00000000E+00  0.00000000E+00
  0.00000000E+00  0.00000000E+00  0.00000000E+00
  0.00000000E+00  0.00000000E+00  0.00000000E+00
  0.00000000E+00  0.00000000E+00  0.00000000E+00
  0.00000000E+00  0.00000000E+00  0.00000000E+00
  0.00000000E+00  0.00000000E+00  0.00000000E+00
  0.00000000E+00  0.00000000E+00  0.00000000E+00
  0.00000000E+00  0.00000000E+00  0.00000000E+00
  0.00000000E+00  0.00000000E+00  0.00000000E+00
  0.00000000E+00  0.00000000E+00  0.00000000E+00
