W4Se2S6/POSCAR-unitcell.orig projected o
   1.00000000000000     
     6.4381977422662580    0.0000000000000000    0.0000000000000000
    -3.2199077257888340    5.5751757287037798    0.0000000000000000
     0.0000000000000000    0.0000000000000000   21.3650220500085943
   W    Se   S 
     4     2     6
Direct
  0.1653752091506195  0.3346247608493781  0.4998806480591315
  0.1679700726094250  0.8320298973905726  0.5000000100000008
  0.6679700726094249  0.3320298973905726  0.5000000100000008
  0.6653752091506192  0.8346247608493783  0.5001193719408701
  0.3331946681827082  0.1668053018172893  0.4185690260801501
  0.8331946681827083  0.6668053018172893  0.5814309939198514
  0.3334332234788570  0.6665148626209263  0.4268464809196066
  0.8334332234788571  0.1665148626209262  0.5731535390803950
  0.8334851073790712  0.1665667465211405  0.4268464809196066
  0.3334851073790713  0.6665667465211405  0.5731535390803950
  0.8332046291993186  0.6667953408006789  0.4283481899381679
  0.3332046291993185  0.1667953408006790  0.5716518300618340
 
  0.00000000E+00  0.00000000E+00  0.00000000E+00
  0.00000000E+00  0.00000000E+00  0.00000000E+00
  0.00000000E+00  0.00000000E+00  0.00000000E+00
  0.00000000E+00  0.00000000E+00  0.00000000E+00
  0.00000000E+00  0.00000000E+00  0.00000000E+00
  0.00000000E+00  0.00000000E+00  0.00000000E+00
  0.00000000E+00  0.00000000E+00  0.00000000E+00
  0.00000000E+00  0.00000000E+00  0.00000000E+00
  0.00000000E+00  0.00000000E+00  0.00000000E+00
  0.00000000E+00  0.00000000E+00  0.00000000E+00
  0.00000000E+00  0.00000000E+00  0.00000000E+00
  0.00000000E+00  0.00000000E+00  0.00000000E+00
