W2Mo2Se3S5/POSCAR-unitcell.orig projecte
   1.00000000000000     
     6.4701633083163363    0.0000000000000000    0.0000000000000000
    -3.2338146021140250    5.6025940677641124    0.0000000000000000
    -0.0020111761282509   -0.0011608498942270   21.1554280904159135
   Mo   W    Se   S 
     2     2     3     5
Direct
  0.6634958821808501  0.3338080217154309  0.4993478357787544
  0.6634958821808501  0.8296896418725193  0.4993478357787544
  0.1713644464625566  0.3356831139348319  0.4991896131325528
  0.1687179151886286  0.8343598482978644  0.4992890932025834
  0.8338738398682681  0.6669378106376839  0.5809035851461020
  0.8334714735629924  0.1667366274850463  0.5793927952556636
  0.8332474505177017  0.1666246159623973  0.4188622345931558
  0.3327135747907322  0.1661573028581605  0.4256432212463746
  0.3327135747907322  0.6665580533396716  0.4256432212463746
  0.3328792609927023  0.6666440144616050  0.5725590488630236
  0.8344734384712972  0.6672376099391986  0.4272624568936505
  0.3328792609927023  0.1662370279382043  0.5725590488630236
 
  0.00000000E+00  0.00000000E+00  0.00000000E+00
  0.00000000E+00  0.00000000E+00  0.00000000E+00
  0.00000000E+00  0.00000000E+00  0.00000000E+00
  0.00000000E+00  0.00000000E+00  0.00000000E+00
  0.00000000E+00  0.00000000E+00  0.00000000E+00
  0.00000000E+00  0.00000000E+00  0.00000000E+00
  0.00000000E+00  0.00000000E+00  0.00000000E+00
  0.00000000E+00  0.00000000E+00  0.00000000E+00
  0.00000000E+00  0.00000000E+00  0.00000000E+00
  0.00000000E+00  0.00000000E+00  0.00000000E+00
  0.00000000E+00  0.00000000E+00  0.00000000E+00
  0.00000000E+00  0.00000000E+00  0.00000000E+00
