W2Mo2Se1S7/POSCAR-unitcell.orig projecte
   1.00000000000000     
     6.4054657918945166    0.0000000000000000    0.0000000000000000
    -3.2027328959472574    5.5472960988528577    0.0000000000000000
     0.0000000000000000    0.0000000000000000   21.3999999999999986
   Mo   W    Se   S 
     2     2     1     7
Direct
  0.6664134596414588  0.3313049402792997  0.4993829323268819
  0.6664134596414588  0.8351099418754236  0.4993829323268819
  0.1657718358903831  0.3328866292018238  0.4992045077804914
  0.1681770477581649  0.8340892351357182  0.4992658646855345
  0.8328939281557840  0.6664476753345314  0.5803815433478449
  0.3330520053954214  0.1666895836640614  0.4261451844227091
  0.3330520053954214  0.6663638442446386  0.4261451844227091
  0.8340130440228554  0.1670072332680670  0.5721370655346069
  0.8339565411661733  0.1669789818397224  0.4261649169688841
  0.3330105906713530  0.6663742610705973  0.5720913683326635
  0.8335621582568448  0.6667817903850581  0.4276071315181365
  0.3330105906713530  0.1666377521140203  0.5720913683326635
 
  0.00000000E+00  0.00000000E+00  0.00000000E+00
  0.00000000E+00  0.00000000E+00  0.00000000E+00
  0.00000000E+00  0.00000000E+00  0.00000000E+00
  0.00000000E+00  0.00000000E+00  0.00000000E+00
  0.00000000E+00  0.00000000E+00  0.00000000E+00
  0.00000000E+00  0.00000000E+00  0.00000000E+00
  0.00000000E+00  0.00000000E+00  0.00000000E+00
  0.00000000E+00  0.00000000E+00  0.00000000E+00
  0.00000000E+00  0.00000000E+00  0.00000000E+00
  0.00000000E+00  0.00000000E+00  0.00000000E+00
  0.00000000E+00  0.00000000E+00  0.00000000E+00
  0.00000000E+00  0.00000000E+00  0.00000000E+00
