Mo4Se2S6/POSCAR-unitcell.orig projected 
   1.00000000000000     
     6.4333214360295816    0.0000000000000000    0.0000000000000000
    -3.2177831457603356    5.5707716095832209    0.0000000000000000
     0.0000000000000000    0.0000000000000000   21.3981197000006027
   Mo   Se   S 
     4     2     6
Direct
  0.1653409779857707  0.3346590220142293  0.4998796612160887
  0.1680079572086255  0.8319920427913744  0.5000000100000008
  0.6680079572086256  0.3319920427913746  0.5000000100000008
  0.6653409779857709  0.8346590220142291  0.5001203587839129
  0.3332156497787977  0.1667843502212023  0.4191624746144686
  0.8332156497787976  0.6667843502212024  0.5808375453855330
  0.3334595512605262  0.6665665865779867  0.4273705967335689
  0.8334595512605261  0.1665665865779868  0.5726294232664326
  0.8334334134220133  0.1665404487394738  0.4273705967335689
  0.3334334134220131  0.6665404487394739  0.5726294232664326
  0.8332054503442665  0.6667945496557335  0.4288968908056980
  0.3332054503442665  0.1667945496557335  0.5711031291943036
 
  0.00000000E+00  0.00000000E+00  0.00000000E+00
  0.00000000E+00  0.00000000E+00  0.00000000E+00
  0.00000000E+00  0.00000000E+00  0.00000000E+00
  0.00000000E+00  0.00000000E+00  0.00000000E+00
  0.00000000E+00  0.00000000E+00  0.00000000E+00
  0.00000000E+00  0.00000000E+00  0.00000000E+00
  0.00000000E+00  0.00000000E+00  0.00000000E+00
  0.00000000E+00  0.00000000E+00  0.00000000E+00
  0.00000000E+00  0.00000000E+00  0.00000000E+00
  0.00000000E+00  0.00000000E+00  0.00000000E+00
  0.00000000E+00  0.00000000E+00  0.00000000E+00
  0.00000000E+00  0.00000000E+00  0.00000000E+00
