W3Mo1Se6S2/POSCAR-unitcell.orig projecte
   1.00000000000000     
     6.5739194447832467    0.0000000000000000    0.0000000000000000
    -3.2869597223916234    5.6931812416147842    0.0000000000000000
     0.0000000000000000    0.0000000000000000   21.3999999999999986
   Mo   W    Se   S 
     1     3     6     2
Direct
  0.6615267955975170  0.8263952477606082  0.5000001738798403
  0.1644336722153899  0.3234883711427354  0.5000001738798403
  0.1644336722153899  0.8322090009963469  0.5000001738798403
  0.6557130423617784  0.3234883711427354  0.5000001738798403
  0.8283853422788131  0.6595367010793122  0.5787516842010503
  0.3278097022349249  0.6595367010793122  0.4212486635586230
  0.8283853422788131  0.1601123411232004  0.5787516842010503
  0.8283853422788131  0.1601123411232004  0.4212486635586230
  0.3278097022349249  0.6595367010793122  0.5787516842010503
  0.8283853422788131  0.6595367010793122  0.4212486635586230
  0.3281934622641813  0.1597285810939439  0.4276786755167152
  0.3281934622641813  0.1597285810939439  0.5723216722429580
 
  0.00000000E+00  0.00000000E+00  0.00000000E+00
  0.00000000E+00  0.00000000E+00  0.00000000E+00
  0.00000000E+00  0.00000000E+00  0.00000000E+00
  0.00000000E+00  0.00000000E+00  0.00000000E+00
  0.00000000E+00  0.00000000E+00  0.00000000E+00
  0.00000000E+00  0.00000000E+00  0.00000000E+00
  0.00000000E+00  0.00000000E+00  0.00000000E+00
  0.00000000E+00  0.00000000E+00  0.00000000E+00
  0.00000000E+00  0.00000000E+00  0.00000000E+00
  0.00000000E+00  0.00000000E+00  0.00000000E+00
  0.00000000E+00  0.00000000E+00  0.00000000E+00
  0.00000000E+00  0.00000000E+00  0.00000000E+00
