W1Mo3Se8/POSCAR-unitcell.orig projected 
   1.00000000000000     
     6.6457455868932120    0.0000000000000000    0.0000000000000000
    -3.3228727934466065    5.7553845053378456    0.0000000000000000
     0.0000000000000000    0.0000000000000000   20.0497130900000009
   Mo   W    Se
     3     1     8
Direct
  0.1658248745414413  0.8329136337122583  0.5000000011055121
  0.6670864466025329  0.3341752057733499  0.5000000011055121
  0.6670864466025329  0.8329136337122583  0.5000000011055121
  0.1666659225821689  0.3333341577326223  0.5000000011055121
  0.3333801979734239  0.1666198823413673  0.4165910774790887
  0.8333325892488332  0.6666674910659580  0.5834263209776390
  0.3333801979734239  0.6667627085151252  0.4165910774790887
  0.8332373717996661  0.1666198823413673  0.5834089247319356
  0.8332373717996661  0.1666198823413673  0.4165910774790887
  0.3333801979734239  0.6667627085151252  0.5834089247319356
  0.8333325892488332  0.6666674910659580  0.4165736812333853
  0.3333801979734239  0.1666198823413673  0.5834089247319356
 
  0.00000000E+00  0.00000000E+00  0.00000000E+00
  0.00000000E+00  0.00000000E+00  0.00000000E+00
  0.00000000E+00  0.00000000E+00  0.00000000E+00
  0.00000000E+00  0.00000000E+00  0.00000000E+00
  0.00000000E+00  0.00000000E+00  0.00000000E+00
  0.00000000E+00  0.00000000E+00  0.00000000E+00
  0.00000000E+00  0.00000000E+00  0.00000000E+00
  0.00000000E+00  0.00000000E+00  0.00000000E+00
  0.00000000E+00  0.00000000E+00  0.00000000E+00
  0.00000000E+00  0.00000000E+00  0.00000000E+00
  0.00000000E+00  0.00000000E+00  0.00000000E+00
  0.00000000E+00  0.00000000E+00  0.00000000E+00
