W1Mo3Se1S7/POSCAR-unitcell.orig projecte
   1.00000000000000     
     6.4031115636913114    0.0000000000000000    0.0000000000000000
    -3.2015557818456557    5.5452572774225759    0.0000000000000000
     0.0000000000000000    0.0000000000000000   21.5979955900043201
   Mo   W    Se   S 
     3     1     1     7
Direct
  0.1682741962549139  0.8341380477145788  0.4993554912088489
  0.6658620226491041  0.3317258741087761  0.4993554912088489
  0.6658620226491041  0.8341380477145788  0.4993554912088489
  0.1666660805177074  0.3333339898459755  0.4991921659539217
  0.8333327471843717  0.6666673231793112  0.5795325990070234
  0.3330800114700536  0.1669200588936365  0.4269166749443590
  0.3330800114700536  0.6661618517506680  0.4269166749443590
  0.8338885875249176  0.1669452433495806  0.5713560979302614
  0.8338382186130220  0.1669200588936365  0.4269166749443590
  0.3330548270141023  0.6661114828387653  0.5713560979302614
  0.8333327471843717  0.6666673231793112  0.4283904327886460
  0.3330548270141023  0.1669452433495806  0.5713560979302614
 
  0.00000000E+00  0.00000000E+00  0.00000000E+00
  0.00000000E+00  0.00000000E+00  0.00000000E+00
  0.00000000E+00  0.00000000E+00  0.00000000E+00
  0.00000000E+00  0.00000000E+00  0.00000000E+00
  0.00000000E+00  0.00000000E+00  0.00000000E+00
  0.00000000E+00  0.00000000E+00  0.00000000E+00
  0.00000000E+00  0.00000000E+00  0.00000000E+00
  0.00000000E+00  0.00000000E+00  0.00000000E+00
  0.00000000E+00  0.00000000E+00  0.00000000E+00
  0.00000000E+00  0.00000000E+00  0.00000000E+00
  0.00000000E+00  0.00000000E+00  0.00000000E+00
  0.00000000E+00  0.00000000E+00  0.00000000E+00
