W1Mo3Se3S5/POSCAR-unitcell.orig projecte
   1.00000000000000     
     6.4681943704689475    0.0000000000000000    0.0000000000000000
    -3.2327073562541115    5.6024228297216849    0.0000000000000000
    -0.0028878368113337    0.0016677710316103   21.1625146994495736
   Mo   W    Se   S 
     3     1     3     5
Direct
  0.1698647560401172  0.8327892430415506  0.5006604941489879
  0.6672106397137537  0.3301351267151871  0.5006604941489879
  0.6642773113162540  0.8357225714390574  0.5007660030344818
  0.1652468811394678  0.3347530016158364  0.5007292033917681
  0.3331922325532706  0.1668076502020338  0.4192571309810409
  0.8331884491454723  0.6668114336098320  0.5809883093718851
  0.8330728669622993  0.6669270157930121  0.4207449803808873
  0.3329388810407921  0.6658476274179569  0.4275554312327385
  0.8342061660453383  0.1669287394286284  0.5742343262624781
  0.8341522553373545  0.1670610017145122  0.4275554312327385
  0.3330711433266831  0.6657937167099660  0.5742343262624781
  0.3329037289110343  0.1670961538442771  0.5726138895515220
 
  0.00000000E+00  0.00000000E+00  0.00000000E+00
  0.00000000E+00  0.00000000E+00  0.00000000E+00
  0.00000000E+00  0.00000000E+00  0.00000000E+00
  0.00000000E+00  0.00000000E+00  0.00000000E+00
  0.00000000E+00  0.00000000E+00  0.00000000E+00
  0.00000000E+00  0.00000000E+00  0.00000000E+00
  0.00000000E+00  0.00000000E+00  0.00000000E+00
  0.00000000E+00  0.00000000E+00  0.00000000E+00
  0.00000000E+00  0.00000000E+00  0.00000000E+00
  0.00000000E+00  0.00000000E+00  0.00000000E+00
  0.00000000E+00  0.00000000E+00  0.00000000E+00
  0.00000000E+00  0.00000000E+00  0.00000000E+00
