W3Mo1Se1S7/POSCAR-unitcell.orig projecte
   1.00000000000000     
     6.4065677645177290    0.0000000000000000    0.0000000000000000
    -3.2032838822588636    5.5482504351388355    0.0000000000000000
     0.0000000000000000    0.0000000000000000   21.3999999999999986
   Mo   W    Se   S 
     1     3     1     7
Direct
  0.6654300890851861  0.8345699284316961  0.4994117911434448
  0.1661937145733069  0.3338063029435753  0.4992213408696231
  0.1686343412853767  0.8334630872823936  0.4993046398673565
  0.6665369302344886  0.3313656762314985  0.4993046398673565
  0.8330868112587094  0.6669132062581727  0.5805029912892418
  0.3332610298026737  0.1667389877142085  0.4260500234287781
  0.3330063220513582  0.6662504420797968  0.4260373272173436
  0.8337456056710366  0.1670318693474720  0.5722417724817862
  0.8337495754370783  0.1669936954655240  0.4260373272173436
  0.3329681481694102  0.6662544118458456  0.5722417724817862
  0.8334242477224278  0.6665757697944472  0.4274788190836503
  0.3332899564768982  0.1667100610399839  0.5721675550522825
 
  0.00000000E+00  0.00000000E+00  0.00000000E+00
  0.00000000E+00  0.00000000E+00  0.00000000E+00
  0.00000000E+00  0.00000000E+00  0.00000000E+00
  0.00000000E+00  0.00000000E+00  0.00000000E+00
  0.00000000E+00  0.00000000E+00  0.00000000E+00
  0.00000000E+00  0.00000000E+00  0.00000000E+00
  0.00000000E+00  0.00000000E+00  0.00000000E+00
  0.00000000E+00  0.00000000E+00  0.00000000E+00
  0.00000000E+00  0.00000000E+00  0.00000000E+00
  0.00000000E+00  0.00000000E+00  0.00000000E+00
  0.00000000E+00  0.00000000E+00  0.00000000E+00
  0.00000000E+00  0.00000000E+00  0.00000000E+00
